(set-logic BV)

(synth-fun deobfucated ( (a (BitVec 64))  (b (BitVec 64))  ) (BitVec 64)
	(
		(Start (BitVec 64)
			(
				(bvnot Start)
				(bvxor Start Start)
				(bvand Start Start)
				(bvor Start Start)
				(bvneg Start)
				(bvadd Start Start)
				(bvmul Start Start)
				(bvsub Start Start)
				a b
			)
		)
	)
)

(constraint (= (deobfucated #x000000000ba3d592 #x000000001f0ca55b) #xfffffffffbffffff))
(constraint (= (deobfucated #x000000000c4c2ecf #x000000002d35206e) #xffffffffdfdfffff))
(constraint (= (deobfucated #x000000001b289626 #x000000001d006d28) #xfffffffffbfff6fe))
(constraint (= (deobfucated #x000000001392085b #x000000001456bff6) #xfffffffffbff5f5f))
(constraint (= (deobfucated #x000000001923546e #x000000002b54ca53) #xfffffffffdaf75ff))
(constraint (= (deobfucated #x00000000097281ae #x000000002d5fb5a9) #xffffffffdffedbff))
(constraint (= (deobfucated #x0000000008925060 #x000000002f340d9d) #xfffffffffadffa63))
(constraint (= (deobfucated #x00000000294ef4c0 #x000000002935750c) #xffffffffffcefef4))
(constraint (= (deobfucated #x0000000033bdb6fa #x000000001db3a73c) #xfffffffffbfffffe))
(constraint (= (deobfucated #x0000000017daa638 #x000000001c9cdbe6) #xffffffffffffa7ba))
(constraint (= (deobfucated #x000000002a0faca5 #x0000000030581c24) #xffffffffffffffff))
(constraint (= (deobfucated #x000000003ab08f9f #x000000000c050485) #xfffffffffbfbffff))
(constraint (= (deobfucated #x00000000368459ed #x000000000885be0d) #xfffffffff7fefdff))
(constraint (= (deobfucated #x000000000916bcce #x000000000d2da2bc) #xfffffffffbf7fdfe))
(constraint (= (deobfucated #x0000000017527b5d #x00000000393e03bf) #xffffffffdff3ff7f))
(constraint (= (deobfucated #x000000003175d5ce #x000000002af98eb7) #xfffffffff777fdff))
(constraint (= (deobfucated #x0000000024ba754f #x000000003a4d66b0) #xfffffffff7ffff7f))
(constraint (= (deobfucated #x00000000245cb39b #x000000002ef3d573) #xfffffffff57ffbdf))
(constraint (= (deobfucated #x000000001e5b33f2 #x00000000028c5bef) #xfffffffffffbfffb))
(constraint (= (deobfucated #x0000000009150fa9 #x000000001548047f) #xffffffffffb7ffff))
(check-synth)